p cnf 50 76
-26 19 0
-26 20 0
26 -19 -20 0
-27 13 0
-27 14 0
27 -13 -14 0
-28 15 0
-28 16 0
28 -15 -16 0
-29 -27 0
-29 -28 0
29 27 28 0
-30 17 0
-30 18 0
30 -17 -18 0
-31 29 0
-31 -30 0
31 -29 30 0
-32 -26 0
-32 31 0
32 26 -31 0
-33 21 0
-33 22 0
33 -21 -22 0
-34 32 0
-34 -33 0
34 -32 33 0
-35 23 0
-35 24 0
35 -23 -24 0
-36 34 0
-36 -35 0
36 -34 35 0
-37 -25 0
-37 -36 0
37 25 36 0
-38 3 0
-38 4 0
38 -3 -4 0
-39 1 0
-39 2 0
39 -1 -2 0
-40 -38 0
-40 -39 0
40 38 39 0
-41 5 0
-41 6 0
41 -5 -6 0
-42 40 0
-42 -41 0
42 -40 41 0
-43 7 0
-43 8 0
43 -7 -8 0
-44 42 0
-44 -43 0
44 -42 43 0
-45 9 0
-45 10 0
45 -9 -10 0
-46 44 0
-46 -45 0
46 -44 45 0
-47 11 0
-47 12 0
47 -11 -12 0
-48 46 0
-48 -47 0
48 -46 47 0
-49 25 0
-49 -48 0
49 -25 48 0
-50 -37 0
-50 -49 0
50 37 49 0
-50 0
